data;

param num_top:=2;

#nodes and edges of the physical network
param n := 10;

set E := (1,2) (1,3) (1,7) (2,4) (2,7) (3,5) (4,8) (5,6) (5,7) (6,7) (6,9) (7,8) (7,9) (8,10) (9,10) ;

#nodes and edges of the virtual networks
set Nl[1] := 2 8 10 1 ;
set Nl[2] := 10 9 1 6 ;

set El[1] := (2,8) (8,10) (1,10) (1,2) ;
set El[2] := (9,10) (1,9) (1,6) (6,10) (6,9) (1,10) ;
